c turning on binary mode checking
c parsing input formula with 202048 variables and 780985 clauses
c finished parsing, read 19790438 bytes from proof file
c detected empty clause; start verification via backward checking
c 27049 of 780985 clauses in core                            
c 41408 of 506449 lemmas in core using 367041 resolution steps
c 0 RAT lemmas in core; 3430 redundant literals in core lemmas
s VERIFIED
c verification time: 3.127 seconds
